Results/Example1.txt
TIP-Decomp	Greedy	TSS
3			2		5
5			7		9
8			5		
9